(declare-datatype Position ((P0) (P1) (P2) (P3) (P4)))
(declare-const a Int)
(declare-const a_1 Int)
(declare-const a_2 Int)
(declare-const a_3 Int)
(declare-const a_4 Int)
(declare-const a_5 Int)
(declare-const a_6 Int)
(declare-const a_7 Int)
(declare-const c Int)
(declare-const c_1 Int)
(declare-const c_2 Int)
(declare-const c_3 Int)
(declare-const dir Bool)
(declare-const dir_1 Bool)
(declare-const dir_2 Bool)
(declare-const dir_3 Bool)
(declare-const dir_4 Bool)
(declare-const dir_5 Bool)
(declare-const dir_6 Bool)
(declare-const dir_7 Bool)
(declare-const dir_8 Bool)
(declare-const dir_9 Bool)
(declare-const dir_10 Bool)
(declare-const dir_11 Bool)
(declare-const dir_12 Bool)
(declare-const dir_13 Bool)
(declare-const dir_14 Bool)
(declare-const dir_15 Bool)
(declare-const dir_16 Bool)
(declare-const dir_17 Bool)
(declare-const dir_18 Bool)
(declare-const dir_19 Bool)
(declare-const pos Position)
(declare-const pos_1 Position)
(declare-const pos_2 Position)
(declare-const pos_3 Position)
(declare-const pos_4 Position)
(declare-const pos_5 Position)
(declare-const pos_6 Position)
(declare-const pos_7 Position)
(declare-const pos_8 Position)
(declare-const pos_9 Position)
(declare-const pos_10 Position)
(declare-const pos_11 Position)
(declare-const pos_12 Position)
(declare-const pos_13 Position)
(declare-const pos_14 Position)
(declare-const pos_15 Position)
(declare-const pos_16 Position)
(declare-const pos_17 Position)
(declare-const pos_18 Position)
(declare-const pos_19 Position)
(assert (>= a 0))
(assert (>= a_1 0))
(assert (>= a_2 0))
(assert (>= a_3 0))
(assert (>= a_4 0))
(assert (>= a_5 0))
(assert (>= a_6 0))
(assert (>= a_7 0))
(assert (>= c 0))
(assert (>= c_1 0))
(assert (>= c_2 0))
(assert (>= c_3 0))
(assert
 (not
  (=>
   (and
    (= a_2
     (+ a (ite (= pos P1) 1 0) (ite (= pos_2 P1) 1 0) (ite (= pos_1 P1) 1 0)
      (ite (= pos_3 P1) 1 0) (ite (= pos_4 P1) 1 0)))
    (= c_1
     (+ c (ite (= pos P3) 1 0) (ite (= pos_2 P3) 1 0) (ite (= pos_1 P3) 1 0)
      (ite (= pos_3 P3) 1 0) (ite (= pos_4 P3) 1 0)))
    (= a_3
     (+ a_1 (ite (= pos P2) 1 0) (ite (= pos_2 P2) 1 0)
      (ite (= pos_1 P2) 1 0) (ite (= pos_3 P2) 1 0) (ite (= pos_4 P2) 1 0)))
    (=> (= pos P1) (and (= pos_5 (ite dir P4 P0)) (iff dir_5 dir)))
    (=> (= pos P2) (and (= pos_5 (ite dir P3 P0)) (iff dir_5 dir)))
    (=> (= pos P3) (and (= pos_5 (ite dir P4 P2)) (iff dir_5 dir)))
    (=> (= pos P0) (and (or (= pos_5 P1) (= pos_5 P2)) dir_5))
    (=> (and (= pos P0) (= pos_5 P1)) (<= a_1 a))
    (=> (and (= pos P0) (= pos_5 P2)) (<= a a_1))
    (=> (= pos P4) (and (or (= pos_5 P1) (= pos_5 P3)) (not dir_5)))
    (=> (and (= pos P4) (= pos_5 P1)) (<= c a))
    (=> (and (= pos P4) (= pos_5 P3)) (<= a c))
    (=> (= pos_4 P1) (and (= pos_9 (ite dir_4 P4 P0)) (iff dir_9 dir_4)))
    (=> (= pos_4 P2) (and (= pos_9 (ite dir_4 P3 P0)) (iff dir_9 dir_4)))
    (=> (= pos_4 P3) (and (= pos_9 (ite dir_4 P4 P2)) (iff dir_9 dir_4)))
    (=> (= pos_4 P0) (and (or (= pos_9 P1) (= pos_9 P2)) dir_9))
    (=> (and (= pos_4 P0) (= pos_9 P1)) (<= a_1 a))
    (=> (and (= pos_4 P0) (= pos_9 P2)) (<= a a_1))
    (=> (= pos_4 P4) (and (or (= pos_9 P1) (= pos_9 P3)) (not dir_9)))
    (=> (and (= pos_4 P4) (= pos_9 P1)) (<= c a))
    (=> (and (= pos_4 P4) (= pos_9 P3)) (<= a c))
    (=> (= pos_1 P1) (and (= pos_6 (ite dir_1 P4 P0)) (iff dir_6 dir_1)))
    (=> (= pos_1 P2) (and (= pos_6 (ite dir_1 P3 P0)) (iff dir_6 dir_1)))
    (=> (= pos_1 P3) (and (= pos_6 (ite dir_1 P4 P2)) (iff dir_6 dir_1)))
    (=> (= pos_1 P0) (and (or (= pos_6 P1) (= pos_6 P2)) dir_6))
    (=> (and (= pos_1 P0) (= pos_6 P1)) (<= a_1 a))
    (=> (and (= pos_1 P0) (= pos_6 P2)) (<= a a_1))
    (=> (= pos_1 P4) (and (or (= pos_6 P1) (= pos_6 P3)) (not dir_6)))
    (=> (and (= pos_1 P4) (= pos_6 P1)) (<= c a))
    (=> (and (= pos_1 P4) (= pos_6 P3)) (<= a c))
    (=> (= pos_2 P1) (and (= pos_7 (ite dir_2 P4 P0)) (iff dir_7 dir_2)))
    (=> (= pos_2 P2) (and (= pos_7 (ite dir_2 P3 P0)) (iff dir_7 dir_2)))
    (=> (= pos_2 P3) (and (= pos_7 (ite dir_2 P4 P2)) (iff dir_7 dir_2)))
    (=> (= pos_2 P0) (and (or (= pos_7 P1) (= pos_7 P2)) dir_7))
    (=> (and (= pos_2 P0) (= pos_7 P1)) (<= a_1 a))
    (=> (and (= pos_2 P0) (= pos_7 P2)) (<= a a_1))
    (=> (= pos_2 P4) (and (or (= pos_7 P1) (= pos_7 P3)) (not dir_7)))
    (=> (and (= pos_2 P4) (= pos_7 P1)) (<= c a))
    (=> (and (= pos_2 P4) (= pos_7 P3)) (<= a c))
    (=> (= pos_3 P1) (and (= pos_8 (ite dir_3 P4 P0)) (iff dir_8 dir_3)))
    (=> (= pos_3 P2) (and (= pos_8 (ite dir_3 P3 P0)) (iff dir_8 dir_3)))
    (=> (= pos_3 P3) (and (= pos_8 (ite dir_3 P4 P2)) (iff dir_8 dir_3)))
    (=> (= pos_3 P0) (and (or (= pos_8 P1) (= pos_8 P2)) dir_8))
    (=> (and (= pos_3 P0) (= pos_8 P1)) (<= a_1 a))
    (=> (and (= pos_3 P0) (= pos_8 P2)) (<= a a_1))
    (=> (= pos_3 P4) (and (or (= pos_8 P1) (= pos_8 P3)) (not dir_8)))
    (=> (and (= pos_3 P4) (= pos_8 P1)) (<= c a))
    (=> (and (= pos_3 P4) (= pos_8 P3)) (<= a c))
    (= a_4
     (+ a_2 (ite (= pos_5 P1) 1 0) (ite (= pos_7 P1) 1 0)
      (ite (= pos_6 P1) 1 0) (ite (= pos_8 P1) 1 0) (ite (= pos_9 P1) 1 0)))
    (= c_2
     (+ c_1 (ite (= pos_5 P3) 1 0) (ite (= pos_7 P3) 1 0)
      (ite (= pos_6 P3) 1 0) (ite (= pos_8 P3) 1 0) (ite (= pos_9 P3) 1 0)))
    (= a_5
     (+ a_3 (ite (= pos_5 P2) 1 0) (ite (= pos_7 P2) 1 0)
      (ite (= pos_6 P2) 1 0) (ite (= pos_8 P2) 1 0) (ite (= pos_9 P2) 1 0)))
    (=> (= pos_5 P1) (and (= pos_10 (ite dir_5 P4 P0)) (iff dir_10 dir_5)))
    (=> (= pos_5 P2) (and (= pos_10 (ite dir_5 P3 P0)) (iff dir_10 dir_5)))
    (=> (= pos_5 P3) (and (= pos_10 (ite dir_5 P4 P2)) (iff dir_10 dir_5)))
    (=> (= pos_5 P0) (and (or (= pos_10 P1) (= pos_10 P2)) dir_10))
    (=> (and (= pos_5 P0) (= pos_10 P1)) (<= a_3 a_2))
    (=> (and (= pos_5 P0) (= pos_10 P2)) (<= a_2 a_3))
    (=> (= pos_5 P4) (and (or (= pos_10 P1) (= pos_10 P3)) (not dir_10)))
    (=> (and (= pos_5 P4) (= pos_10 P1)) (<= c_1 a_2))
    (=> (and (= pos_5 P4) (= pos_10 P3)) (<= a_2 c_1))
    (=> (= pos_9 P1) (and (= pos_14 (ite dir_9 P4 P0)) (iff dir_14 dir_9)))
    (=> (= pos_9 P2) (and (= pos_14 (ite dir_9 P3 P0)) (iff dir_14 dir_9)))
    (=> (= pos_9 P3) (and (= pos_14 (ite dir_9 P4 P2)) (iff dir_14 dir_9)))
    (=> (= pos_9 P0) (and (or (= pos_14 P1) (= pos_14 P2)) dir_14))
    (=> (and (= pos_9 P0) (= pos_14 P1)) (<= a_3 a_2))
    (=> (and (= pos_9 P0) (= pos_14 P2)) (<= a_2 a_3))
    (=> (= pos_9 P4) (and (or (= pos_14 P1) (= pos_14 P3)) (not dir_14)))
    (=> (and (= pos_9 P4) (= pos_14 P1)) (<= c_1 a_2))
    (=> (and (= pos_9 P4) (= pos_14 P3)) (<= a_2 c_1))
    (=> (= pos_6 P1) (and (= pos_11 (ite dir_6 P4 P0)) (iff dir_11 dir_6)))
    (=> (= pos_6 P2) (and (= pos_11 (ite dir_6 P3 P0)) (iff dir_11 dir_6)))
    (=> (= pos_6 P3) (and (= pos_11 (ite dir_6 P4 P2)) (iff dir_11 dir_6)))
    (=> (= pos_6 P0) (and (or (= pos_11 P1) (= pos_11 P2)) dir_11))
    (=> (and (= pos_6 P0) (= pos_11 P1)) (<= a_3 a_2))
    (=> (and (= pos_6 P0) (= pos_11 P2)) (<= a_2 a_3))
    (=> (= pos_6 P4) (and (or (= pos_11 P1) (= pos_11 P3)) (not dir_11)))
    (=> (and (= pos_6 P4) (= pos_11 P1)) (<= c_1 a_2))
    (=> (and (= pos_6 P4) (= pos_11 P3)) (<= a_2 c_1))
    (=> (= pos_7 P1) (and (= pos_12 (ite dir_7 P4 P0)) (iff dir_12 dir_7)))
    (=> (= pos_7 P2) (and (= pos_12 (ite dir_7 P3 P0)) (iff dir_12 dir_7)))
    (=> (= pos_7 P3) (and (= pos_12 (ite dir_7 P4 P2)) (iff dir_12 dir_7)))
    (=> (= pos_7 P0) (and (or (= pos_12 P1) (= pos_12 P2)) dir_12))
    (=> (and (= pos_7 P0) (= pos_12 P1)) (<= a_3 a_2))
    (=> (and (= pos_7 P0) (= pos_12 P2)) (<= a_2 a_3))
    (=> (= pos_7 P4) (and (or (= pos_12 P1) (= pos_12 P3)) (not dir_12)))
    (=> (and (= pos_7 P4) (= pos_12 P1)) (<= c_1 a_2))
    (=> (and (= pos_7 P4) (= pos_12 P3)) (<= a_2 c_1))
    (=> (= pos_8 P1) (and (= pos_13 (ite dir_8 P4 P0)) (iff dir_13 dir_8)))
    (=> (= pos_8 P2) (and (= pos_13 (ite dir_8 P3 P0)) (iff dir_13 dir_8)))
    (=> (= pos_8 P3) (and (= pos_13 (ite dir_8 P4 P2)) (iff dir_13 dir_8)))
    (=> (= pos_8 P0) (and (or (= pos_13 P1) (= pos_13 P2)) dir_13))
    (=> (and (= pos_8 P0) (= pos_13 P1)) (<= a_3 a_2))
    (=> (and (= pos_8 P0) (= pos_13 P2)) (<= a_2 a_3))
    (=> (= pos_8 P4) (and (or (= pos_13 P1) (= pos_13 P3)) (not dir_13)))
    (=> (and (= pos_8 P4) (= pos_13 P1)) (<= c_1 a_2))
    (=> (and (= pos_8 P4) (= pos_13 P3)) (<= a_2 c_1))
    (= a_6
     (+ a_4 (ite (= pos_10 P1) 1 0) (ite (= pos_12 P1) 1 0)
      (ite (= pos_11 P1) 1 0) (ite (= pos_13 P1) 1 0)
      (ite (= pos_14 P1) 1 0)))
    (= c_3
     (+ c_2 (ite (= pos_10 P3) 1 0) (ite (= pos_12 P3) 1 0)
      (ite (= pos_11 P3) 1 0) (ite (= pos_13 P3) 1 0)
      (ite (= pos_14 P3) 1 0)))
    (= a_7
     (+ a_5 (ite (= pos_10 P2) 1 0) (ite (= pos_12 P2) 1 0)
      (ite (= pos_11 P2) 1 0) (ite (= pos_13 P2) 1 0)
      (ite (= pos_14 P2) 1 0)))
    (=> (= pos_10 P1)
     (and (= pos_15 (ite dir_10 P4 P0)) (iff dir_15 dir_10)))
    (=> (= pos_10 P2)
     (and (= pos_15 (ite dir_10 P3 P0)) (iff dir_15 dir_10)))
    (=> (= pos_10 P3)
     (and (= pos_15 (ite dir_10 P4 P2)) (iff dir_15 dir_10)))
    (=> (= pos_10 P0) (and (or (= pos_15 P1) (= pos_15 P2)) dir_15))
    (=> (and (= pos_10 P0) (= pos_15 P1)) (<= a_5 a_4))
    (=> (and (= pos_10 P0) (= pos_15 P2)) (<= a_4 a_5))
    (=> (= pos_10 P4) (and (or (= pos_15 P1) (= pos_15 P3)) (not dir_15)))
    (=> (and (= pos_10 P4) (= pos_15 P1)) (<= c_2 a_4))
    (=> (and (= pos_10 P4) (= pos_15 P3)) (<= a_4 c_2))
    (=> (= pos_14 P1)
     (and (= pos_19 (ite dir_14 P4 P0)) (iff dir_19 dir_14)))
    (=> (= pos_14 P2)
     (and (= pos_19 (ite dir_14 P3 P0)) (iff dir_19 dir_14)))
    (=> (= pos_14 P3)
     (and (= pos_19 (ite dir_14 P4 P2)) (iff dir_19 dir_14)))
    (=> (= pos_14 P0) (and (or (= pos_19 P1) (= pos_19 P2)) dir_19))
    (=> (and (= pos_14 P0) (= pos_19 P1)) (<= a_5 a_4))
    (=> (and (= pos_14 P0) (= pos_19 P2)) (<= a_4 a_5))
    (=> (= pos_14 P4) (and (or (= pos_19 P1) (= pos_19 P3)) (not dir_19)))
    (=> (and (= pos_14 P4) (= pos_19 P1)) (<= c_2 a_4))
    (=> (and (= pos_14 P4) (= pos_19 P3)) (<= a_4 c_2))
    (=> (= pos_11 P1)
     (and (= pos_16 (ite dir_11 P4 P0)) (iff dir_16 dir_11)))
    (=> (= pos_11 P2)
     (and (= pos_16 (ite dir_11 P3 P0)) (iff dir_16 dir_11)))
    (=> (= pos_11 P3)
     (and (= pos_16 (ite dir_11 P4 P2)) (iff dir_16 dir_11)))
    (=> (= pos_11 P0) (and (or (= pos_16 P1) (= pos_16 P2)) dir_16))
    (=> (and (= pos_11 P0) (= pos_16 P1)) (<= a_5 a_4))
    (=> (and (= pos_11 P0) (= pos_16 P2)) (<= a_4 a_5))
    (=> (= pos_11 P4) (and (or (= pos_16 P1) (= pos_16 P3)) (not dir_16)))
    (=> (and (= pos_11 P4) (= pos_16 P1)) (<= c_2 a_4))
    (=> (and (= pos_11 P4) (= pos_16 P3)) (<= a_4 c_2))
    (=> (= pos_12 P1)
     (and (= pos_17 (ite dir_12 P4 P0)) (iff dir_17 dir_12)))
    (=> (= pos_12 P2)
     (and (= pos_17 (ite dir_12 P3 P0)) (iff dir_17 dir_12)))
    (=> (= pos_12 P3)
     (and (= pos_17 (ite dir_12 P4 P2)) (iff dir_17 dir_12)))
    (=> (= pos_12 P0) (and (or (= pos_17 P1) (= pos_17 P2)) dir_17))
    (=> (and (= pos_12 P0) (= pos_17 P1)) (<= a_5 a_4))
    (=> (and (= pos_12 P0) (= pos_17 P2)) (<= a_4 a_5))
    (=> (= pos_12 P4) (and (or (= pos_17 P1) (= pos_17 P3)) (not dir_17)))
    (=> (and (= pos_12 P4) (= pos_17 P1)) (<= c_2 a_4))
    (=> (and (= pos_12 P4) (= pos_17 P3)) (<= a_4 c_2))
    (=> (= pos_13 P1)
     (and (= pos_18 (ite dir_13 P4 P0)) (iff dir_18 dir_13)))
    (=> (= pos_13 P2)
     (and (= pos_18 (ite dir_13 P3 P0)) (iff dir_18 dir_13)))
    (=> (= pos_13 P3)
     (and (= pos_18 (ite dir_13 P4 P2)) (iff dir_18 dir_13)))
    (=> (= pos_13 P0) (and (or (= pos_18 P1) (= pos_18 P2)) dir_18))
    (=> (and (= pos_13 P0) (= pos_18 P1)) (<= a_5 a_4))
    (=> (and (= pos_13 P0) (= pos_18 P2)) (<= a_4 a_5))
    (=> (= pos_13 P4) (and (or (= pos_18 P1) (= pos_18 P3)) (not dir_18)))
    (=> (and (= pos_13 P4) (= pos_18 P1)) (<= c_2 a_4))
    (=> (and (= pos_13 P4) (= pos_18 P3)) (<= a_4 c_2))
    (> a (ite (<= a_1 c) c a_1)) (> a_2 (ite (<= a_3 c_1) c_1 a_3))
    (> a_4 (ite (<= a_5 c_2) c_2 a_5)))
   (> a_6 (ite (<= a_7 c_3) c_3 a_7)))))
(check-sat)
